JulietBench/Juliet_Based_Patch_Bench/linux/CWE-189-Numeric-Errors/CVE_2011_2521_fc66c5210ec2539e800e87d7b3a985323c7be96e/solverx86_assign_hw_event_Snippet_patch1.smt2
; benchmark generated from python API
(set-info :status unknown)
(declare-fun R () (_ BitVec 32))
(declare-fun rdi () (_ BitVec 64))
(assert
 (let (($x47 (= (_ bv0 32) R)))
 (let ((?x6 ((_ extract 31 0) rdi)))
 (let (($x11 (= (_ bv48 32) ?x6)))
 (let (($x157 (and $x11 $x47)))
 (let (($x37 (and (distinct (_ bv48 32) ?x6) true)))
 (let (($x48 (bvsge (_ bv31 32) ?x6)))
 (let (($x155 (and $x48 $x37 $x47)))
 (let ((?x153 (bvadd (_ bv745 32) ?x6)))
 (let (($x159 (= R ?x153)))
 (let (($x148 (bvslt (_ bv31 32) ?x6)))
 (let (($x160 (and $x148 $x37 $x159)))
 (let (($x161 (or $x160 $x155 $x157)))
 (let (($x164 (not $x161)))
 (let (($x7 (= (_ bv777 32) R)))
 (let (($x41 (and $x148 $x37 $x7)))
 (let (($x158 (or $x41 $x155 $x157)))
 (let (($x163 (not $x158)))
 (let (($x165 (and $x163 $x164)))
 (let (($x162 (and $x158 $x161)))
 (let (($x166 (or $x162 $x165)))
 (not $x166))))))))))))))))))))))
(check-sat)
